K=5;
N=7;
P=[26 22 37 34 48];
R=[4 25 11 3 26];
A=[2 6 6 4 4];
C=[5 24 19 27 6];
M=[
	[0 3 8 34 48 19 11]
	[3 0 5 27 11 32 35]
	[8 5 0 27 18 29 26]
	[34 27 27 0 16 1 16]
	[48 11 18 16 0 46 47]
	[19 32 29 1 46 0 35]
	[11 35 26 16 47 35 0]
];